row=6;
column=6;
Board=[|4,1,3,2,5,6|6,2,4,5,3,1|3,5,6,4,1,2|5,6,1,3,2,4|2,4,5,1,6,3|1,3,2,6,4,5|];
horizontal=[|1,0,1,0,0|1,0,0,1,1|0,0,1,1,0|0,1,0,1,-1|0,0,1,0,1|0,1,0,1,0|];
vertical=[|0,0,0,0,1,1|1,0,0,1,1,0|0,0,1,1,0,0|1,1,0,1,0,1|1,1,1,0,1,0|];
